W=7;
H=3;

MAX_TIME=21;
MAX_TRACKS=21;

TARGET=(1,7);

TRAINS=[(1,2,LEFT)];

INIT_POS=[
(1,2,STRAIGHT_RL),
(1,4,STRAIGHT_RL),
(1,5,STRAIGHT_RL),
(1,6,STRAIGHT_RL),
(1,7,STRAIGHT_RL),
(3,2,STRAIGHT_RL),
(3,4,STRAIGHT_RL),
(3,6,STRAIGHT_RL),
];
TUNNEL_PAIRS=[];

GATES=[
(1,4,1,false),
(1,5,2,true),
(1,6,3,false),
];
ACTIVATIONS=[
(3,2,3),
(3,4,2),
(3,6,1),
];

DSWITCHES=[];

STATIONS=[];
